objective value:                                12378
t_x_2                                               1 	(obj:34)
t_x_6                                               1 	(obj:51)
t_x_7                                               1 	(obj:26)
t_x_9                                               1 	(obj:4)
t_x_10                                              1 	(obj:51)
t_x_17                                              1 	(obj:38)
t_x_19                                              1 	(obj:33)
t_x_22                                              1 	(obj:18)
t_x_26                                              1 	(obj:24)
t_x_29                                              1 	(obj:22)
t_x_30                                              1 	(obj:75)
t_x_42                                              1 	(obj:10)
t_x_43                                              1 	(obj:38)
t_x_44                                              1 	(obj:33)
t_x_45                                              1 	(obj:17)
t_x_50                                              1 	(obj:24)
t_x_53                                              1 	(obj:3)
t_x_55                                              1 	(obj:8)
t_x_58                                              1 	(obj:13)
t_x_59                                              1 	(obj:1)
t_x_61                                              1 	(obj:10)
t_x_62                                              1 	(obj:46)
t_x_68                                              1 	(obj:10)
t_x_69                                              1 	(obj:50)
t_x_73                                              1 	(obj:3)
t_x_79                                              1 	(obj:83)
t_x_83                                              1 	(obj:11)
t_x_86                                              1 	(obj:7)
t_x_91                                              1 	(obj:29)
t_x_96                                              1 	(obj:38)
t_x_99                                              1 	(obj:1)
t_x_106                                             1 	(obj:78)
t_x_108                                             1 	(obj:42)
t_x_109                                             1 	(obj:23)
t_x_111                                             1 	(obj:3)
t_x_112                                             1 	(obj:57)
t_x_116                                             1 	(obj:24)
t_x_119                                             1 	(obj:17)
t_x_121                                             1 	(obj:56)
t_x_125                                             1 	(obj:12)
t_x_127                                             1 	(obj:12)
t_x_133                                             1 	(obj:25)
t_x_138                                             1 	(obj:33)
t_x_141                                             1 	(obj:12)
t_x_143                                             1 	(obj:19)
t_x_153                                             1 	(obj:11)
t_x_154                                             1 	(obj:31)
t_x_156                                             1 	(obj:9)
t_x_158                                             1 	(obj:10)
t_x_159                                             1 	(obj:28)
t_x_163                                             1 	(obj:11)
t_x_165                                             1 	(obj:18)
t_x_167                                             1 	(obj:24)
t_x_168                                             1 	(obj:32)
t_x_171                                             1 	(obj:17)
t_x_174                                             1 	(obj:14)
t_x_175                                             1 	(obj:15)
t_x_176                                             1 	(obj:7)
t_x_182                                             1 	(obj:22)
t_x_184                                             1 	(obj:48)
t_x_186                                             1 	(obj:2)
t_x_188                                             1 	(obj:65)
t_x_190                                             1 	(obj:1)
t_x_192                                             1 	(obj:2)
t_x_195                                             1 	(obj:18)
t_x_200                                             1 	(obj:16)
t_x_201                                             1 	(obj:20)
t_x_202                                             1 	(obj:30)
t_x_205                                             1 	(obj:2)
t_x_206                                             1 	(obj:19)
t_x_207                                             1 	(obj:24)
t_x_208                                             1 	(obj:16)
t_x_209                                             1 	(obj:33)
t_x_223                                             1 	(obj:12)
t_x_225                                             1 	(obj:10)
t_x_226                                             1 	(obj:14)
t_x_234                                             1 	(obj:30)
t_x_235                                             1 	(obj:14)
t_x_236                                             1 	(obj:28)
t_x_240                                             1 	(obj:13)
t_x_242                                             1 	(obj:42)
t_x_245                                             1 	(obj:15)
t_x_247                                             1 	(obj:23)
t_x_254                                             1 	(obj:55)
t_x_257                                             1 	(obj:8)
t_x_261                                             1 	(obj:21)
t_x_268                                             1 	(obj:28)
t_x_270                                             1 	(obj:45)
t_x_273                                             1 	(obj:51)
t_x_281                                             1 	(obj:0)
t_x_282                                             1 	(obj:3)
t_x_287                                             1 	(obj:7)
t_x_290                                             1 	(obj:27)
t_x_291                                             1 	(obj:18)
t_x_292                                             1 	(obj:16)
t_x_300                                             1 	(obj:56)
t_x_302                                             1 	(obj:4)
t_x_303                                             1 	(obj:32)
t_x_304                                             1 	(obj:28)
t_x_319                                             1 	(obj:29)
t_x_320                                             1 	(obj:53)
t_x_321                                             1 	(obj:26)
t_x_323                                             1 	(obj:26)
t_x_330                                             1 	(obj:15)
t_x_333                                             1 	(obj:48)
t_x_335                                             1 	(obj:8)
t_x_343                                             1 	(obj:36)
t_x_346                                             1 	(obj:28)
t_x_350                                             1 	(obj:21)
t_x_353                                             1 	(obj:8)
t_x_354                                             1 	(obj:27)
t_x_358                                             1 	(obj:30)
t_x_365                                             1 	(obj:9)
t_x_376                                             1 	(obj:13)
t_x_378                                             1 	(obj:5)
t_x_380                                             1 	(obj:19)
t_x_381                                             1 	(obj:22)
t_x_384                                             1 	(obj:60)
t_x_387                                             1 	(obj:0)
t_x_391                                             1 	(obj:38)
t_x_395                                             1 	(obj:17)
t_x_402                                             1 	(obj:28)
t_x_404                                             1 	(obj:23)
t_x_407                                             1 	(obj:12)
t_x_423                                             1 	(obj:7)
t_x_425                                             1 	(obj:2)
t_x_428                                             1 	(obj:0)
t_x_429                                             1 	(obj:43)
t_x_433                                             1 	(obj:13)
t_x_434                                             1 	(obj:1)
t_x_435                                             1 	(obj:0)
t_x_441                                             1 	(obj:1)
t_x_444                                             1 	(obj:39)
t_x_447                                             1 	(obj:11)
t_x_451                                             1 	(obj:0)
t_x_454                                             1 	(obj:26)
t_x_458                                             1 	(obj:29)
t_x_459                                             1 	(obj:46)
t_x_474                                             1 	(obj:35)
t_x_480                                             1 	(obj:13)
t_x_482                                             1 	(obj:41)
t_x_487                                             1 	(obj:71)
t_x_490                                             1 	(obj:21)
t_x_491                                             1 	(obj:6)
t_x_492                                             1 	(obj:0)
t_x_497                                             1 	(obj:2)
t_x_500                                             1 	(obj:5)
t_x_506                                             1 	(obj:50)
t_x_508                                             1 	(obj:3)
t_x_510                                             1 	(obj:7)
t_x_511                                             1 	(obj:2)
t_x_515                                             1 	(obj:12)
t_x_520                                             1 	(obj:25)
t_x_521                                             1 	(obj:44)
t_x_524                                             1 	(obj:41)
t_x_526                                             1 	(obj:6)
t_x_528                                             1 	(obj:7)
t_x_537                                             1 	(obj:42)
t_x_544                                             1 	(obj:0)
t_x_546                                             1 	(obj:5)
t_x_549                                             1 	(obj:19)
t_x_550                                             1 	(obj:15)
t_x_556                                             1 	(obj:40)
t_x_560                                             1 	(obj:3)
t_x_563                                             1 	(obj:8)
t_x_565                                             1 	(obj:2)
t_x_569                                             1 	(obj:8)
t_x_572                                             1 	(obj:16)
t_x_574                                             1 	(obj:34)
t_x_579                                             1 	(obj:11)
t_x_581                                             1 	(obj:33)
t_x_586                                             1 	(obj:14)
t_x_587                                             1 	(obj:4)
t_x_588                                             1 	(obj:10)
t_x_589                                             1 	(obj:59)
t_x_594                                             1 	(obj:11)
t_x_595                                             1 	(obj:33)
t_x_597                                             1 	(obj:21)
t_x_602                                             1 	(obj:5)
t_x_608                                             1 	(obj:70)
t_x_611                                             1 	(obj:14)
t_x_613                                             1 	(obj:23)
t_x_614                                             1 	(obj:0)
t_x_615                                             1 	(obj:21)
t_x_616                                             1 	(obj:11)
t_x_622                                             1 	(obj:6)
t_x_625                                             1 	(obj:59)
t_x_628                                             1 	(obj:15)
t_x_629                                             1 	(obj:1)
t_x_631                                             1 	(obj:47)
t_x_636                                             1 	(obj:20)
t_x_638                                             1 	(obj:44)
t_x_639                                             1 	(obj:5)
t_x_642                                             1 	(obj:8)
t_x_646                                             1 	(obj:14)
t_x_647                                             1 	(obj:16)
t_x_649                                             1 	(obj:33)
t_x_654                                             1 	(obj:37)
t_x_658                                             1 	(obj:10)
t_x_661                                             1 	(obj:36)
t_x_662                                             1 	(obj:11)
t_x_664                                             1 	(obj:48)
t_x_666                                             1 	(obj:15)
t_x_667                                             1 	(obj:23)
t_x_669                                             1 	(obj:6)
t_x_670                                             1 	(obj:23)
t_x_678                                             1 	(obj:23)
t_x_679                                             1 	(obj:7)
t_x_684                                             1 	(obj:10)
t_x_691                                             1 	(obj:6)
t_x_695                                             1 	(obj:5)
t_x_699                                             1 	(obj:18)
t_x_705                                             1 	(obj:27)
t_x_708                                             1 	(obj:48)
t_x_709                                             1 	(obj:9)
t_x_710                                             1 	(obj:33)
t_x_711                                             1 	(obj:11)
t_x_712                                             1 	(obj:28)
t_x_713                                             1 	(obj:18)
t_x_718                                             1 	(obj:9)
t_x_722                                             1 	(obj:4)
t_x_723                                             1 	(obj:4)
t_x_726                                             1 	(obj:16)
t_x_727                                             1 	(obj:29)
t_x_729                                             1 	(obj:20)
t_x_731                                             1 	(obj:8)
t_x_738                                             1 	(obj:12)
t_x_741                                             1 	(obj:5)
t_x_743                                             1 	(obj:9)
t_x_746                                             1 	(obj:33)
t_x_751                                             1 	(obj:6)
t_x_754                                             1 	(obj:67)
t_x_765                                             1 	(obj:17)
t_x_768                                             1 	(obj:0)
t_x_777                                             1 	(obj:20)
t_x_779                                             1 	(obj:32)
t_x_782                                             1 	(obj:20)
t_x_783                                             1 	(obj:19)
t_x_792                                             1 	(obj:9)
t_x_793                                             1 	(obj:6)
t_x_796                                             1 	(obj:6)
t_x_800                                             1 	(obj:27)
t_x_801                                             1 	(obj:33)
t_x_812                                             1 	(obj:7)
t_x_813                                             1 	(obj:6)
t_x_818                                             1 	(obj:23)
t_x_819                                             1 	(obj:17)
t_x_820                                             1 	(obj:0)
t_x_822                                             1 	(obj:27)
t_x_823                                             1 	(obj:12)
t_x_826                                             1 	(obj:22)
t_x_831                                             1 	(obj:6)
t_x_832                                             1 	(obj:34)
t_x_837                                             1 	(obj:13)
t_x_839                                             1 	(obj:22)
t_x_842                                             1 	(obj:6)
t_x_847                                             1 	(obj:4)
t_x_852                                             1 	(obj:37)
t_x_855                                             1 	(obj:59)
t_x_856                                             1 	(obj:19)
t_x_859                                             1 	(obj:6)
t_x_860                                             1 	(obj:11)
t_x_861                                             1 	(obj:47)
t_x_862                                             1 	(obj:18)
t_x_863                                             1 	(obj:0)
t_x_865                                             1 	(obj:0)
t_x_866                                             1 	(obj:4)
t_x_872                                             1 	(obj:6)
t_x_876                                             1 	(obj:0)
t_x_883                                             1 	(obj:3)
t_x_885                                             1 	(obj:18)
t_x_886                                             1 	(obj:27)
t_x_890                                             1 	(obj:9)
t_x_908                                             1 	(obj:31)
t_x_909                                             1 	(obj:12)
t_x_910                                             1 	(obj:46)
t_x_912                                             1 	(obj:50)
t_x_914                                             1 	(obj:27)
t_x_919                                             1 	(obj:48)
t_x_920                                             1 	(obj:11)
t_x_924                                             1 	(obj:5)
t_x_928                                             1 	(obj:36)
t_x_941                                             1 	(obj:29)
t_x_948                                             1 	(obj:1)
t_x_949                                             1 	(obj:26)
t_x_954                                             1 	(obj:1)
t_x_962                                             1 	(obj:12)
t_x_963                                             1 	(obj:3)
t_x_964                                             1 	(obj:20)
t_x_965                                             1 	(obj:11)
t_x_978                                             1 	(obj:41)
t_x_980                                             1 	(obj:21)
t_x_983                                             1 	(obj:3)
t_x_985                                             1 	(obj:4)
t_x_987                                             1 	(obj:53)
t_x_991                                             1 	(obj:8)
t_x_992                                             1 	(obj:21)
t_x_994                                             1 	(obj:39)
t_x_1001                                            1 	(obj:37)
t_x_1006                                            1 	(obj:14)
t_x_1008                                            1 	(obj:7)
t_x_1009                                            1 	(obj:35)
t_x_1010                                            1 	(obj:2)
t_x_1011                                            1 	(obj:24)
t_x_1017                                            1 	(obj:3)
t_x_1019                                            1 	(obj:3)
t_x_1020                                            1 	(obj:31)
t_x_1029                                            1 	(obj:13)
t_x_1032                                            1 	(obj:8)
t_x_1036                                            1 	(obj:20)
t_x_1038                                            1 	(obj:13)
t_x_1043                                            1 	(obj:4)
t_x_1044                                            1 	(obj:10)
t_x_1046                                            1 	(obj:26)
t_x_1047                                            1 	(obj:0)
t_x_1049                                            1 	(obj:10)
t_x_1051                                            1 	(obj:19)
t_x_1053                                            1 	(obj:25)
t_x_1061                                            1 	(obj:15)
t_x_1063                                            1 	(obj:11)
t_x_1065                                            1 	(obj:24)
t_x_1071                                            1 	(obj:3)
t_x_1075                                            1 	(obj:12)
t_x_1077                                            1 	(obj:0)
t_x_1079                                            1 	(obj:26)
t_x_1080                                            1 	(obj:18)
t_x_1081                                            1 	(obj:4)
t_x_1082                                            1 	(obj:34)
t_x_1086                                            1 	(obj:14)
t_x_1087                                            1 	(obj:22)
t_x_1096                                            1 	(obj:9)
t_x_1099                                            1 	(obj:4)
t_x_1104                                            1 	(obj:4)
t_x_1105                                            1 	(obj:17)
t_x_1106                                            1 	(obj:19)
t_x_1108                                            1 	(obj:13)
t_x_1110                                            1 	(obj:56)
t_x_1116                                            1 	(obj:23)
t_x_1118                                            1 	(obj:31)
t_x_1120                                            1 	(obj:27)
t_x_1124                                            1 	(obj:5)
t_x_1133                                            1 	(obj:15)
t_x_1136                                            1 	(obj:13)
t_x_1139                                            1 	(obj:6)
t_x_1142                                            1 	(obj:4)
t_x_1145                                            1 	(obj:8)
t_x_1147                                            1 	(obj:4)
t_x_1149                                            1 	(obj:21)
t_x_1152                                            1 	(obj:29)
t_x_1156                                            1 	(obj:2)
t_x_1157                                            1 	(obj:10)
t_x_1163                                            1 	(obj:14)
t_x_1167                                            1 	(obj:1)
t_x_1171                                            1 	(obj:19)
t_x_1172                                            1 	(obj:11)
t_x_1178                                            1 	(obj:9)
t_x_1180                                            1 	(obj:50)
t_x_1184                                            1 	(obj:28)
t_x_1199                                            1 	(obj:42)
t_x_1200                                            1 	(obj:22)
t_x_1201                                            1 	(obj:9)
t_x_1203                                            1 	(obj:30)
t_x_1204                                            1 	(obj:43)
t_x_1209                                            1 	(obj:40)
t_x_1210                                            1 	(obj:37)
t_x_1211                                            1 	(obj:55)
t_x_1212                                            1 	(obj:13)
t_x_1219                                            1 	(obj:51)
t_x_1227                                            1 	(obj:32)
t_x_1229                                            1 	(obj:0)
t_x_1230                                            1 	(obj:11)
t_x_1231                                            1 	(obj:30)
t_x_1234                                            1 	(obj:24)
t_x_1236                                            1 	(obj:19)
t_x_1238                                            1 	(obj:8)
t_x_1241                                            1 	(obj:34)
t_x_1242                                            1 	(obj:10)
t_x_1243                                            1 	(obj:17)
t_x_1247                                            1 	(obj:16)
t_x_1250                                            1 	(obj:13)
t_x_1252                                            1 	(obj:34)
t_x_1253                                            1 	(obj:17)
t_x_1257                                            1 	(obj:12)
t_x_1258                                            1 	(obj:41)
t_x_1261                                            1 	(obj:8)
t_x_1263                                            1 	(obj:44)
t_x_1265                                            1 	(obj:21)
t_x_1268                                            1 	(obj:4)
t_x_1269                                            1 	(obj:21)
t_x_1270                                            1 	(obj:23)
t_x_1277                                            1 	(obj:11)
t_x_1281                                            1 	(obj:16)
t_x_1283                                            1 	(obj:21)
t_x_1284                                            1 	(obj:46)
t_x_1285                                            1 	(obj:72)
t_x_1286                                            1 	(obj:4)
t_x_1287                                            1 	(obj:39)
t_x_1289                                            1 	(obj:7)
t_x_1294                                            1 	(obj:2)
t_x_1298                                            1 	(obj:2)
t_x_1300                                            1 	(obj:20)
t_x_1302                                            1 	(obj:28)
t_x_1304                                            1 	(obj:19)
t_x_1305                                            1 	(obj:26)
t_x_1307                                            1 	(obj:70)
t_x_1309                                            1 	(obj:32)
t_x_1311                                            1 	(obj:3)
t_x_1314                                            1 	(obj:19)
t_x_1316                                            1 	(obj:0)
t_x_1326                                            1 	(obj:13)
t_x_1328                                            1 	(obj:7)
t_x_1331                                            1 	(obj:7)
t_x_1334                                            1 	(obj:30)
t_x_1335                                            1 	(obj:22)
t_x_1338                                            1 	(obj:5)
t_x_1344                                            1 	(obj:8)
t_x_1350                                            1 	(obj:45)
t_x_1351                                            1 	(obj:2)
t_x_1356                                            1 	(obj:40)
t_x_1368                                            1 	(obj:18)
t_x_1371                                            1 	(obj:2)
t_x_1375                                            1 	(obj:26)
t_x_1377                                            1 	(obj:21)
t_x_1378                                            1 	(obj:52)
t_x_1379                                            1 	(obj:2)
t_x_1381                                            1 	(obj:1)
t_x_1384                                            1 	(obj:29)
t_x_1385                                            1 	(obj:7)
t_x_1387                                            1 	(obj:6)
t_x_1400                                            1 	(obj:38)
t_x_1402                                            1 	(obj:26)
t_x_1406                                            1 	(obj:21)
t_x_1407                                            1 	(obj:0)
t_x_1413                                            1 	(obj:4)
t_x_1414                                            1 	(obj:21)
t_x_1416                                            1 	(obj:17)
t_x_1423                                            1 	(obj:19)
t_x_1428                                            1 	(obj:25)
t_x_1429                                            1 	(obj:4)
t_x_1433                                            1 	(obj:15)
t_x_1436                                            1 	(obj:2)
t_x_1437                                            1 	(obj:6)
t_x_1443                                            1 	(obj:30)
t_x_1446                                            1 	(obj:6)
t_x_1447                                            1 	(obj:6)
t_x_1448                                            1 	(obj:14)
t_x_1457                                            1 	(obj:14)
t_x_1458                                            1 	(obj:13)
t_x_1460                                            1 	(obj:13)
t_x_1463                                            1 	(obj:10)
t_x_1469                                            1 	(obj:6)
t_x_1471                                            1 	(obj:18)
t_x_1475                                            1 	(obj:30)
t_x_1484                                            1 	(obj:1)
t_x_1485                                            1 	(obj:26)
t_x_1487                                            1 	(obj:10)
t_x_1489                                            1 	(obj:22)
t_x_1493                                            1 	(obj:43)
t_x_1497                                            1 	(obj:2)
t_x_1498                                            1 	(obj:15)
t_x_1499                                            1 	(obj:19)
t_x_1511                                            1 	(obj:9)
t_x_1513                                            1 	(obj:50)
t_x_1518                                            1 	(obj:12)
t_x_1521                                            1 	(obj:70)
t_x_1523                                            1 	(obj:20)
t_x_1524                                            1 	(obj:12)
t_x_1525                                            1 	(obj:3)
t_x_1532                                            1 	(obj:42)
t_x_1535                                            1 	(obj:28)
t_x_1539                                            1 	(obj:5)
t_x_1544                                            1 	(obj:16)
t_x_1546                                            1 	(obj:9)
t_x_1550                                            1 	(obj:30)
t_x_1551                                            1 	(obj:25)
t_x_1555                                            1 	(obj:6)
t_x_1557                                            1 	(obj:42)
t_x_1560                                            1 	(obj:33)
t_x_1562                                            1 	(obj:26)
t_x_1563                                            1 	(obj:3)
t_x_1568                                            1 	(obj:16)
t_x_1573                                            1 	(obj:59)
t_x_1577                                            1 	(obj:24)
t_x_1582                                            1 	(obj:4)
t_x_1584                                            1 	(obj:8)
t_x_1593                                            1 	(obj:0)
t_x_1594                                            1 	(obj:31)
t_x_1595                                            1 	(obj:11)
t_x_1596                                            1 	(obj:17)
t_x_1597                                            1 	(obj:44)
t_x_1600                                            1 	(obj:5)
t_x_1602                                            1 	(obj:5)
t_x_1603                                            1 	(obj:0)
t_x_1604                                            1 	(obj:37)
t_x_1605                                            1 	(obj:45)
t_x_1607                                            1 	(obj:3)
t_x_1611                                            1 	(obj:21)
t_x_1614                                            1 	(obj:16)
t_x_1616                                            1 	(obj:10)
t_x_1625                                            1 	(obj:28)
t_x_1629                                            1 	(obj:9)
t_x_1631                                            1 	(obj:27)
t_x_1632                                            1 	(obj:4)
t_x_1643                                            1 	(obj:24)
t_x_1648                                            1 	(obj:2)
t_x_1653                                            1 	(obj:29)
t_x_1665                                            1 	(obj:28)
t_x_1666                                            1 	(obj:2)
t_x_1673                                            1 	(obj:4)
t_x_1675                                            1 	(obj:20)
t_x_1683                                            1 	(obj:2)
t_x_1688                                            1 	(obj:50)
t_x_1693                                            1 	(obj:2)
t_x_1696                                            1 	(obj:62)
t_x_1701                                            1 	(obj:61)
t_x_1707                                            1 	(obj:3)
t_x_1712                                            1 	(obj:17)
t_x_1713                                            1 	(obj:5)
t_x_1714                                            1 	(obj:2)
t_x_1716                                            1 	(obj:23)
t_x_1723                                            1 	(obj:3)
t_x_1724                                            1 	(obj:34)
t_x_1725                                            1 	(obj:5)
t_x_1726                                            1 	(obj:31)
t_x_1732                                            1 	(obj:28)
t_x_1733                                            1 	(obj:1)
t_x_1735                                            1 	(obj:8)
t_x_1739                                            1 	(obj:12)
t_x_1742                                            1 	(obj:49)
t_x_1746                                            1 	(obj:9)
t_x_1748                                            1 	(obj:42)
t_x_1753                                            1 	(obj:14)
t_x_1754                                            1 	(obj:3)
t_x_1755                                            1 	(obj:26)
t_x_1756                                            1 	(obj:31)
t_x_1758                                            1 	(obj:9)
t_x_1760                                            1 	(obj:46)
t_x_1762                                            1 	(obj:20)
t_x_1767                                            1 	(obj:10)
t_x_1773                                            1 	(obj:4)
t_x_1774                                            1 	(obj:14)
t_x_1778                                            1 	(obj:1)
t_x_1782                                            1 	(obj:15)
t_x_1783                                            1 	(obj:18)
t_x_1785                                            1 	(obj:1)
t_x_1786                                            1 	(obj:4)
t_x_1793                                            1 	(obj:0)
t_x_1795                                            1 	(obj:44)
t_x_1796                                            1 	(obj:29)
t_x_1797                                            1 	(obj:29)
t_x_1801                                            1 	(obj:3)
t_x_1802                                            1 	(obj:16)
t_x_1804                                            1 	(obj:23)
t_x_1805                                            1 	(obj:80)
t_x_1806                                            1 	(obj:29)
t_x_1812                                            1 	(obj:35)
t_x_1822                                            1 	(obj:74)
t_x_1829                                            1 	(obj:3)
t_x_1830                                            1 	(obj:59)
t_x_1835                                            1 	(obj:22)
t_x_1838                                            1 	(obj:37)
t_x_1839                                            1 	(obj:11)
t_x_1846                                            1 	(obj:31)
t_x_1847                                            1 	(obj:22)
t_x_1848                                            1 	(obj:32)
t_x_1852                                            1 	(obj:11)
t_x_1856                                            1 	(obj:14)
t_x_1865                                            1 	(obj:8)
t_x_1866                                            1 	(obj:15)
t_x_1867                                            1 	(obj:3)
t_x_1870                                            1 	(obj:22)
t_x_1876                                            1 	(obj:15)
t_x_1877                                            1 	(obj:20)
t_x_1890                                            1 	(obj:9)
t_x_1891                                            1 	(obj:20)
t_x_1892                                            1 	(obj:8)
t_x_1895                                            1 	(obj:38)
t_x_1898                                            1 	(obj:38)
t_x_1904                                            1 	(obj:51)
t_x_1905                                            1 	(obj:15)
t_x_1906                                            1 	(obj:25)
t_x_1908                                            1 	(obj:6)
t_x_1909                                            1 	(obj:6)
t_x_1910                                            1 	(obj:39)
t_x_1912                                            1 	(obj:17)
t_x_1914                                            1 	(obj:1)
t_x_1918                                            1 	(obj:3)
t_x_1923                                            1 	(obj:38)
t_x_1928                                            1 	(obj:14)
t_x_1933                                            1 	(obj:20)
t_x_1934                                            1 	(obj:44)
t_x_1935                                            1 	(obj:8)
t_x_1936                                            1 	(obj:16)
t_x_1938                                            1 	(obj:21)
t_x_1939                                            1 	(obj:44)
t_x_1940                                            1 	(obj:8)
t_x_1944                                            1 	(obj:10)
t_x_1946                                            1 	(obj:12)
t_x_1948                                            1 	(obj:46)
t_x_1952                                            1 	(obj:16)
t_x_1959                                            1 	(obj:5)
t_x_1965                                            1 	(obj:8)
t_x_1969                                            1 	(obj:7)
t_x_1971                                            1 	(obj:21)
t_x_1973                                            1 	(obj:5)
t_x_1974                                            1 	(obj:33)
t_x_1975                                            1 	(obj:2)
t_x_1980                                            1 	(obj:9)
t_x_1983                                            1 	(obj:20)
t_x_1984                                            1 	(obj:18)
t_x_1990                                            1 	(obj:14)
t_x_1991                                            1 	(obj:4)
t_x_1993                                            1 	(obj:28)
t_x_1997                                            1 	(obj:26)
t_x_1998                                            1 	(obj:19)
